NAME 
ROWS
 N  OBJ
 G  R0      
 G  R1      
 G  R2      
 G  R3      
 G  R4      
 G  R5      
 G  R6      
 G  R7      
 G  R8      
 G  R9      
 G  R10     
 G  R11     
 G  R12     
 G  R13     
 G  R14     
 G  R15     
 G  R16     
 G  R17     
 G  R18     
 G  R19     
 G  R20     
 G  R21     
 G  R22     
 G  R23     
 G  R24     
 G  R25     
 G  R26     
 G  R27     
 G  R28     
 G  R29     
 G  R30     
 G  R31     
 G  R32     
 G  R33     
 G  R34     
 G  R35     
 G  R36     
 G  R37     
 G  R38     
 G  R39     
 G  R40     
 G  R41     
 G  R42     
 G  R43     
 G  R44     
 G  R45     
 G  R46     
 G  R47     
 G  R48     
 G  R49     
 G  R50     
 G  R51     
 G  R52     
 G  R53     
COLUMNS
    x0        OBJ       1
    x0        R0        1
    x0        R4        1
    x0        R5        1
    x0        R7        1
    x0        R8        1
    x0        R10       1
    x0        R11       1
    x0        R12       1
    x0        R15       1
    x0        R19       1
    x0        R20       1
    x0        R21       1
    x0        R24       1
    x0        R28       1
    x0        R29       1
    x0        R30       1
    x0        R33       1
    x0        R36       1
    x0        R45       1
    x1        OBJ       1
    x1        R1        1
    x1        R3        1
    x1        R5        1
    x1        R6        1
    x1        R8        1
    x1        R9        1
    x1        R11       1
    x1        R13       1
    x1        R16       1
    x1        R18       1
    x1        R20       1
    x1        R22       1
    x1        R25       1
    x1        R27       1
    x1        R29       1
    x1        R31       1
    x1        R34       1
    x1        R37       1
    x1        R46       1
    x2        OBJ       1
    x2        R2        1
    x2        R3        1
    x2        R4        1
    x2        R6        1
    x2        R7        1
    x2        R9        1
    x2        R10       1
    x2        R14       1
    x2        R17       1
    x2        R18       1
    x2        R19       1
    x2        R23       1
    x2        R26       1
    x2        R27       1
    x2        R28       1
    x2        R32       1
    x2        R35       1
    x2        R38       1
    x2        R47       1
    x3        OBJ       1
    x3        R1        1
    x3        R2        1
    x3        R3        1
    x3        R7        1
    x3        R8        1
    x3        R9        1
    x3        R13       1
    x3        R14       1
    x3        R15       1
    x3        R18       1
    x3        R22       1
    x3        R23       1
    x3        R24       1
    x3        R27       1
    x3        R31       1
    x3        R32       1
    x3        R33       1
    x3        R39       1
    x3        R48       1
    x4        OBJ       1
    x4        R0        1
    x4        R2        1
    x4        R4        1
    x4        R6        1
    x4        R8        1
    x4        R10       1
    x4        R12       1
    x4        R14       1
    x4        R16       1
    x4        R19       1
    x4        R21       1
    x4        R23       1
    x4        R25       1
    x4        R28       1
    x4        R30       1
    x4        R32       1
    x4        R34       1
    x4        R40       1
    x4        R49       1
    x5        OBJ       1
    x5        R0        1
    x5        R1        1
    x5        R5        1
    x5        R6        1
    x5        R7        1
    x5        R11       1
    x5        R12       1
    x5        R13       1
    x5        R17       1
    x5        R20       1
    x5        R21       1
    x5        R22       1
    x5        R26       1
    x5        R29       1
    x5        R30       1
    x5        R31       1
    x5        R35       1
    x5        R41       1
    x5        R50       1
    x6        OBJ       1
    x6        R1        1
    x6        R2        1
    x6        R4        1
    x6        R5        1
    x6        R6        1
    x6        R9        1
    x6        R12       1
    x6        R16       1
    x6        R17       1
    x6        R18       1
    x6        R21       1
    x6        R25       1
    x6        R26       1
    x6        R27       1
    x6        R30       1
    x6        R34       1
    x6        R35       1
    x6        R42       1
    x6        R51       1
    x7        OBJ       1
    x7        R0        1
    x7        R2        1
    x7        R3        1
    x7        R5        1
    x7        R7        1
    x7        R10       1
    x7        R13       1
    x7        R15       1
    x7        R17       1
    x7        R19       1
    x7        R22       1
    x7        R24       1
    x7        R26       1
    x7        R28       1
    x7        R31       1
    x7        R33       1
    x7        R35       1
    x7        R43       1
    x7        R52       1
    x8        OBJ       1
    x8        R0        1
    x8        R1        1
    x8        R3        1
    x8        R4        1
    x8        R8        1
    x8        R11       1
    x8        R14       1
    x8        R15       1
    x8        R16       1
    x8        R20       1
    x8        R23       1
    x8        R24       1
    x8        R25       1
    x8        R29       1
    x8        R32       1
    x8        R33       1
    x8        R34       1
    x8        R44       1
    x8        R53       1
    x9        OBJ       1
    x9        R1        1
    x9        R2        1
    x9        R3        1
    x9        R6        1
    x9        R9        1
    x9        R13       1
    x9        R14       1
    x9        R16       1
    x9        R17       1
    x9        R19       1
    x9        R20       1
    x9        R21       1
    x9        R24       1
    x9        R27       1
    x9        R37       1
    x9        R38       1
    x9        R39       1
    x9        R42       1
    x9        R45       1
    x10       OBJ       1
    x10       R0        1
    x10       R2        1
    x10       R4        1
    x10       R7        1
    x10       R10       1
    x10       R12       1
    x10       R14       1
    x10       R15       1
    x10       R17       1
    x10       R18       1
    x10       R20       1
    x10       R22       1
    x10       R25       1
    x10       R28       1
    x10       R36       1
    x10       R38       1
    x10       R40       1
    x10       R43       1
    x10       R46       1
    x11       OBJ       1
    x11       R0        1
    x11       R1        1
    x11       R5        1
    x11       R8        1
    x11       R11       1
    x11       R12       1
    x11       R13       1
    x11       R15       1
    x11       R16       1
    x11       R18       1
    x11       R19       1
    x11       R23       1
    x11       R26       1
    x11       R29       1
    x11       R36       1
    x11       R37       1
    x11       R41       1
    x11       R44       1
    x11       R47       1
    x12       OBJ       1
    x12       R0        1
    x12       R4        1
    x12       R5        1
    x12       R6        1
    x12       R10       1
    x12       R11       1
    x12       R12       1
    x12       R16       1
    x12       R17       1
    x12       R18       1
    x12       R22       1
    x12       R23       1
    x12       R24       1
    x12       R30       1
    x12       R36       1
    x12       R40       1
    x12       R41       1
    x12       R42       1
    x12       R48       1
    x13       OBJ       1
    x13       R1        1
    x13       R3        1
    x13       R5        1
    x13       R7        1
    x13       R9        1
    x13       R11       1
    x13       R13       1
    x13       R15       1
    x13       R17       1
    x13       R19       1
    x13       R21       1
    x13       R23       1
    x13       R25       1
    x13       R31       1
    x13       R37       1
    x13       R39       1
    x13       R41       1
    x13       R43       1
    x13       R49       1
    x14       OBJ       1
    x14       R2        1
    x14       R3        1
    x14       R4        1
    x14       R8        1
    x14       R9        1
    x14       R10       1
    x14       R14       1
    x14       R15       1
    x14       R16       1
    x14       R20       1
    x14       R21       1
    x14       R22       1
    x14       R26       1
    x14       R32       1
    x14       R38       1
    x14       R39       1
    x14       R40       1
    x14       R44       1
    x14       R50       1
    x15       OBJ       1
    x15       R0        1
    x15       R3        1
    x15       R7        1
    x15       R8        1
    x15       R10       1
    x15       R11       1
    x15       R13       1
    x15       R14       1
    x15       R15       1
    x15       R18       1
    x15       R21       1
    x15       R25       1
    x15       R26       1
    x15       R33       1
    x15       R36       1
    x15       R39       1
    x15       R43       1
    x15       R44       1
    x15       R51       1
    x16       OBJ       1
    x16       R1        1
    x16       R4        1
    x16       R6        1
    x16       R8        1
    x16       R9        1
    x16       R11       1
    x16       R12       1
    x16       R14       1
    x16       R16       1
    x16       R19       1
    x16       R22       1
    x16       R24       1
    x16       R26       1
    x16       R34       1
    x16       R37       1
    x16       R40       1
    x16       R42       1
    x16       R44       1
    x16       R52       1
    x17       OBJ       1
    x17       R2        1
    x17       R5        1
    x17       R6        1
    x17       R7        1
    x17       R9        1
    x17       R10       1
    x17       R12       1
    x17       R13       1
    x17       R17       1
    x17       R20       1
    x17       R23       1
    x17       R24       1
    x17       R25       1
    x17       R35       1
    x17       R38       1
    x17       R41       1
    x17       R42       1
    x17       R43       1
    x17       R53       1
    x18       OBJ       1
    x18       R1        1
    x18       R2        1
    x18       R3        1
    x18       R6        1
    x18       R10       1
    x18       R11       1
    x18       R12       1
    x18       R15       1
    x18       R18       1
    x18       R22       1
    x18       R23       1
    x18       R25       1
    x18       R26       1
    x18       R27       1
    x18       R36       1
    x18       R46       1
    x18       R47       1
    x18       R48       1
    x18       R51       1
    x19       OBJ       1
    x19       R0        1
    x19       R2        1
    x19       R4        1
    x19       R7        1
    x19       R9        1
    x19       R11       1
    x19       R13       1
    x19       R16       1
    x19       R19       1
    x19       R21       1
    x19       R23       1
    x19       R24       1
    x19       R26       1
    x19       R28       1
    x19       R37       1
    x19       R45       1
    x19       R47       1
    x19       R49       1
    x19       R52       1
    x20       OBJ       1
    x20       R0        1
    x20       R1        1
    x20       R5        1
    x20       R8        1
    x20       R9        1
    x20       R10       1
    x20       R14       1
    x20       R17       1
    x20       R20       1
    x20       R21       1
    x20       R22       1
    x20       R24       1
    x20       R25       1
    x20       R29       1
    x20       R38       1
    x20       R45       1
    x20       R46       1
    x20       R50       1
    x20       R53       1
    x21       OBJ       1
    x21       R0        1
    x21       R4        1
    x21       R5        1
    x21       R6        1
    x21       R9        1
    x21       R13       1
    x21       R14       1
    x21       R15       1
    x21       R19       1
    x21       R20       1
    x21       R21       1
    x21       R25       1
    x21       R26       1
    x21       R30       1
    x21       R39       1
    x21       R45       1
    x21       R49       1
    x21       R50       1
    x21       R51       1
    x22       OBJ       1
    x22       R1        1
    x22       R3        1
    x22       R5        1
    x22       R7        1
    x22       R10       1
    x22       R12       1
    x22       R14       1
    x22       R16       1
    x22       R18       1
    x22       R20       1
    x22       R22       1
    x22       R24       1
    x22       R26       1
    x22       R31       1
    x22       R40       1
    x22       R46       1
    x22       R48       1
    x22       R50       1
    x22       R52       1
    x23       OBJ       1
    x23       R2        1
    x23       R3        1
    x23       R4        1
    x23       R8        1
    x23       R11       1
    x23       R12       1
    x23       R13       1
    x23       R17       1
    x23       R18       1
    x23       R19       1
    x23       R23       1
    x23       R24       1
    x23       R25       1
    x23       R32       1
    x23       R41       1
    x23       R47       1
    x23       R48       1
    x23       R49       1
    x23       R53       1
    x24       OBJ       1
    x24       R0        1
    x24       R3        1
    x24       R7        1
    x24       R8        1
    x24       R9        1
    x24       R12       1
    x24       R16       1
    x24       R17       1
    x24       R19       1
    x24       R20       1
    x24       R22       1
    x24       R23       1
    x24       R24       1
    x24       R33       1
    x24       R42       1
    x24       R45       1
    x24       R48       1
    x24       R52       1
    x24       R53       1
    x25       OBJ       1
    x25       R1        1
    x25       R4        1
    x25       R6        1
    x25       R8        1
    x25       R10       1
    x25       R13       1
    x25       R15       1
    x25       R17       1
    x25       R18       1
    x25       R20       1
    x25       R21       1
    x25       R23       1
    x25       R25       1
    x25       R34       1
    x25       R43       1
    x25       R46       1
    x25       R49       1
    x25       R51       1
    x25       R53       1
    x26       OBJ       1
    x26       R2        1
    x26       R5        1
    x26       R6        1
    x26       R7        1
    x26       R11       1
    x26       R14       1
    x26       R15       1
    x26       R16       1
    x26       R18       1
    x26       R19       1
    x26       R21       1
    x26       R22       1
    x26       R26       1
    x26       R35       1
    x26       R44       1
    x26       R47       1
    x26       R50       1
    x26       R51       1
    x26       R52       1
    x27       OBJ       1
    x27       R1        1
    x27       R2        1
    x27       R3        1
    x27       R6        1
    x27       R9        1
    x27       R18       1
    x27       R27       1
    x27       R31       1
    x27       R32       1
    x27       R34       1
    x27       R35       1
    x27       R37       1
    x27       R38       1
    x27       R39       1
    x27       R42       1
    x27       R46       1
    x27       R47       1
    x27       R48       1
    x27       R51       1
    x28       OBJ       1
    x28       R0        1
    x28       R2        1
    x28       R4        1
    x28       R7        1
    x28       R10       1
    x28       R19       1
    x28       R28       1
    x28       R30       1
    x28       R32       1
    x28       R33       1
    x28       R35       1
    x28       R36       1
    x28       R38       1
    x28       R40       1
    x28       R43       1
    x28       R45       1
    x28       R47       1
    x28       R49       1
    x28       R52       1
    x29       OBJ       1
    x29       R0        1
    x29       R1        1
    x29       R5        1
    x29       R8        1
    x29       R11       1
    x29       R20       1
    x29       R29       1
    x29       R30       1
    x29       R31       1
    x29       R33       1
    x29       R34       1
    x29       R36       1
    x29       R37       1
    x29       R41       1
    x29       R44       1
    x29       R45       1
    x29       R46       1
    x29       R50       1
    x29       R53       1
    x30       OBJ       1
    x30       R0        1
    x30       R4        1
    x30       R5        1
    x30       R6        1
    x30       R12       1
    x30       R21       1
    x30       R28       1
    x30       R29       1
    x30       R30       1
    x30       R34       1
    x30       R35       1
    x30       R36       1
    x30       R40       1
    x30       R41       1
    x30       R42       1
    x30       R45       1
    x30       R49       1
    x30       R50       1
    x30       R51       1
    x31       OBJ       1
    x31       R1        1
    x31       R3        1
    x31       R5        1
    x31       R7        1
    x31       R13       1
    x31       R22       1
    x31       R27       1
    x31       R29       1
    x31       R31       1
    x31       R33       1
    x31       R35       1
    x31       R37       1
    x31       R39       1
    x31       R41       1
    x31       R43       1
    x31       R46       1
    x31       R48       1
    x31       R50       1
    x31       R52       1
    x32       OBJ       1
    x32       R2        1
    x32       R3        1
    x32       R4        1
    x32       R8        1
    x32       R14       1
    x32       R23       1
    x32       R27       1
    x32       R28       1
    x32       R32       1
    x32       R33       1
    x32       R34       1
    x32       R38       1
    x32       R39       1
    x32       R40       1
    x32       R44       1
    x32       R47       1
    x32       R48       1
    x32       R49       1
    x32       R53       1
    x33       OBJ       1
    x33       R0        1
    x33       R3        1
    x33       R7        1
    x33       R8        1
    x33       R15       1
    x33       R24       1
    x33       R28       1
    x33       R29       1
    x33       R31       1
    x33       R32       1
    x33       R33       1
    x33       R36       1
    x33       R39       1
    x33       R43       1
    x33       R44       1
    x33       R45       1
    x33       R48       1
    x33       R52       1
    x33       R53       1
    x34       OBJ       1
    x34       R1        1
    x34       R4        1
    x34       R6        1
    x34       R8        1
    x34       R16       1
    x34       R25       1
    x34       R27       1
    x34       R29       1
    x34       R30       1
    x34       R32       1
    x34       R34       1
    x34       R37       1
    x34       R40       1
    x34       R42       1
    x34       R44       1
    x34       R46       1
    x34       R49       1
    x34       R51       1
    x34       R53       1
    x35       OBJ       1
    x35       R2        1
    x35       R5        1
    x35       R6        1
    x35       R7        1
    x35       R17       1
    x35       R26       1
    x35       R27       1
    x35       R28       1
    x35       R30       1
    x35       R31       1
    x35       R35       1
    x35       R38       1
    x35       R41       1
    x35       R42       1
    x35       R43       1
    x35       R47       1
    x35       R50       1
    x35       R51       1
    x35       R52       1
    x36       OBJ       1
    x36       R0        1
    x36       R10       1
    x36       R11       1
    x36       R12       1
    x36       R15       1
    x36       R18       1
    x36       R28       1
    x36       R29       1
    x36       R30       1
    x36       R33       1
    x36       R36       1
    x36       R40       1
    x36       R41       1
    x36       R43       1
    x36       R44       1
    x36       R46       1
    x36       R47       1
    x36       R48       1
    x36       R51       1
    x37       OBJ       1
    x37       R1        1
    x37       R9        1
    x37       R11       1
    x37       R13       1
    x37       R16       1
    x37       R19       1
    x37       R27       1
    x37       R29       1
    x37       R31       1
    x37       R34       1
    x37       R37       1
    x37       R39       1
    x37       R41       1
    x37       R42       1
    x37       R44       1
    x37       R45       1
    x37       R47       1
    x37       R49       1
    x37       R52       1
    x38       OBJ       1
    x38       R2        1
    x38       R9        1
    x38       R10       1
    x38       R14       1
    x38       R17       1
    x38       R20       1
    x38       R27       1
    x38       R28       1
    x38       R32       1
    x38       R35       1
    x38       R38       1
    x38       R39       1
    x38       R40       1
    x38       R42       1
    x38       R43       1
    x38       R45       1
    x38       R46       1
    x38       R50       1
    x38       R53       1
    x39       OBJ       1
    x39       R3        1
    x39       R9        1
    x39       R13       1
    x39       R14       1
    x39       R15       1
    x39       R21       1
    x39       R27       1
    x39       R31       1
    x39       R32       1
    x39       R33       1
    x39       R37       1
    x39       R38       1
    x39       R39       1
    x39       R43       1
    x39       R44       1
    x39       R45       1
    x39       R49       1
    x39       R50       1
    x39       R51       1
    x40       OBJ       1
    x40       R4        1
    x40       R10       1
    x40       R12       1
    x40       R14       1
    x40       R16       1
    x40       R22       1
    x40       R28       1
    x40       R30       1
    x40       R32       1
    x40       R34       1
    x40       R36       1
    x40       R38       1
    x40       R40       1
    x40       R42       1
    x40       R44       1
    x40       R46       1
    x40       R48       1
    x40       R50       1
    x40       R52       1
    x41       OBJ       1
    x41       R5        1
    x41       R11       1
    x41       R12       1
    x41       R13       1
    x41       R17       1
    x41       R23       1
    x41       R29       1
    x41       R30       1
    x41       R31       1
    x41       R35       1
    x41       R36       1
    x41       R37       1
    x41       R41       1
    x41       R42       1
    x41       R43       1
    x41       R47       1
    x41       R48       1
    x41       R49       1
    x41       R53       1
    x42       OBJ       1
    x42       R6        1
    x42       R9        1
    x42       R12       1
    x42       R16       1
    x42       R17       1
    x42       R24       1
    x42       R27       1
    x42       R30       1
    x42       R34       1
    x42       R35       1
    x42       R37       1
    x42       R38       1
    x42       R40       1
    x42       R41       1
    x42       R42       1
    x42       R45       1
    x42       R48       1
    x42       R52       1
    x42       R53       1
    x43       OBJ       1
    x43       R7        1
    x43       R10       1
    x43       R13       1
    x43       R15       1
    x43       R17       1
    x43       R25       1
    x43       R28       1
    x43       R31       1
    x43       R33       1
    x43       R35       1
    x43       R36       1
    x43       R38       1
    x43       R39       1
    x43       R41       1
    x43       R43       1
    x43       R46       1
    x43       R49       1
    x43       R51       1
    x43       R53       1
    x44       OBJ       1
    x44       R8        1
    x44       R11       1
    x44       R14       1
    x44       R15       1
    x44       R16       1
    x44       R26       1
    x44       R29       1
    x44       R32       1
    x44       R33       1
    x44       R34       1
    x44       R36       1
    x44       R37       1
    x44       R39       1
    x44       R40       1
    x44       R44       1
    x44       R47       1
    x44       R50       1
    x44       R51       1
    x44       R52       1
    x45       OBJ       1
    x45       R0        1
    x45       R9        1
    x45       R19       1
    x45       R20       1
    x45       R21       1
    x45       R24       1
    x45       R28       1
    x45       R29       1
    x45       R30       1
    x45       R33       1
    x45       R37       1
    x45       R38       1
    x45       R39       1
    x45       R42       1
    x45       R45       1
    x45       R49       1
    x45       R50       1
    x45       R52       1
    x45       R53       1
    x46       OBJ       1
    x46       R1        1
    x46       R10       1
    x46       R18       1
    x46       R20       1
    x46       R22       1
    x46       R25       1
    x46       R27       1
    x46       R29       1
    x46       R31       1
    x46       R34       1
    x46       R36       1
    x46       R38       1
    x46       R40       1
    x46       R43       1
    x46       R46       1
    x46       R48       1
    x46       R50       1
    x46       R51       1
    x46       R53       1
    x47       OBJ       1
    x47       R2        1
    x47       R11       1
    x47       R18       1
    x47       R19       1
    x47       R23       1
    x47       R26       1
    x47       R27       1
    x47       R28       1
    x47       R32       1
    x47       R35       1
    x47       R36       1
    x47       R37       1
    x47       R41       1
    x47       R44       1
    x47       R47       1
    x47       R48       1
    x47       R49       1
    x47       R51       1
    x47       R52       1
    x48       OBJ       1
    x48       R3        1
    x48       R12       1
    x48       R18       1
    x48       R22       1
    x48       R23       1
    x48       R24       1
    x48       R27       1
    x48       R31       1
    x48       R32       1
    x48       R33       1
    x48       R36       1
    x48       R40       1
    x48       R41       1
    x48       R42       1
    x48       R46       1
    x48       R47       1
    x48       R48       1
    x48       R52       1
    x48       R53       1
    x49       OBJ       1
    x49       R4        1
    x49       R13       1
    x49       R19       1
    x49       R21       1
    x49       R23       1
    x49       R25       1
    x49       R28       1
    x49       R30       1
    x49       R32       1
    x49       R34       1
    x49       R37       1
    x49       R39       1
    x49       R41       1
    x49       R43       1
    x49       R45       1
    x49       R47       1
    x49       R49       1
    x49       R51       1
    x49       R53       1
    x50       OBJ       1
    x50       R5        1
    x50       R14       1
    x50       R20       1
    x50       R21       1
    x50       R22       1
    x50       R26       1
    x50       R29       1
    x50       R30       1
    x50       R31       1
    x50       R35       1
    x50       R38       1
    x50       R39       1
    x50       R40       1
    x50       R44       1
    x50       R45       1
    x50       R46       1
    x50       R50       1
    x50       R51       1
    x50       R52       1
    x51       OBJ       1
    x51       R6        1
    x51       R15       1
    x51       R18       1
    x51       R21       1
    x51       R25       1
    x51       R26       1
    x51       R27       1
    x51       R30       1
    x51       R34       1
    x51       R35       1
    x51       R36       1
    x51       R39       1
    x51       R43       1
    x51       R44       1
    x51       R46       1
    x51       R47       1
    x51       R49       1
    x51       R50       1
    x51       R51       1
    x52       OBJ       1
    x52       R7        1
    x52       R16       1
    x52       R19       1
    x52       R22       1
    x52       R24       1
    x52       R26       1
    x52       R28       1
    x52       R31       1
    x52       R33       1
    x52       R35       1
    x52       R37       1
    x52       R40       1
    x52       R42       1
    x52       R44       1
    x52       R45       1
    x52       R47       1
    x52       R48       1
    x52       R50       1
    x52       R52       1
    x53       OBJ       1
    x53       R8        1
    x53       R17       1
    x53       R20       1
    x53       R23       1
    x53       R24       1
    x53       R25       1
    x53       R29       1
    x53       R32       1
    x53       R33       1
    x53       R34       1
    x53       R38       1
    x53       R41       1
    x53       R42       1
    x53       R43       1
    x53       R45       1
    x53       R46       1
    x53       R48       1
    x53       R49       1
    x53       R53       1
RHS
    RHS1      R0        1
    RHS1      R1        1
    RHS1      R2        1
    RHS1      R3        1
    RHS1      R4        1
    RHS1      R5        1
    RHS1      R6        1
    RHS1      R7        1
    RHS1      R8        1
    RHS1      R9        1
    RHS1      R10       1
    RHS1      R11       1
    RHS1      R12       1
    RHS1      R13       1
    RHS1      R14       1
    RHS1      R15       1
    RHS1      R16       1
    RHS1      R17       1
    RHS1      R18       1
    RHS1      R19       1
    RHS1      R20       1
    RHS1      R21       1
    RHS1      R22       1
    RHS1      R23       1
    RHS1      R24       1
    RHS1      R25       1
    RHS1      R26       1
    RHS1      R27       1
    RHS1      R28       1
    RHS1      R29       1
    RHS1      R30       1
    RHS1      R31       1
    RHS1      R32       1
    RHS1      R33       1
    RHS1      R34       1
    RHS1      R35       1
    RHS1      R36       1
    RHS1      R37       1
    RHS1      R38       1
    RHS1      R39       1
    RHS1      R40       1
    RHS1      R41       1
    RHS1      R42       1
    RHS1      R43       1
    RHS1      R44       1
    RHS1      R45       1
    RHS1      R46       1
    RHS1      R47       1
    RHS1      R48       1
    RHS1      R49       1
    RHS1      R50       1
    RHS1      R51       1
    RHS1      R52       1
    RHS1      R53       1
BOUNDS
 UP BND1      x0        1
 UP BND1      x1        1
 UP BND1      x2        1
 UP BND1      x3        1
 UP BND1      x4        1
 UP BND1      x5        1
 UP BND1      x6        1
 UP BND1      x7        1
 UP BND1      x8        1
 UP BND1      x9        1
 UP BND1      x10       1
 UP BND1      x11       1
 UP BND1      x12       1
 UP BND1      x13       1
 UP BND1      x14       1
 UP BND1      x15       1
 UP BND1      x16       1
 UP BND1      x17       1
 UP BND1      x18       1
 UP BND1      x19       1
 UP BND1      x20       1
 UP BND1      x21       1
 UP BND1      x22       1
 UP BND1      x23       1
 UP BND1      x24       1
 UP BND1      x25       1
 UP BND1      x26       1
 UP BND1      x27       1
 UP BND1      x28       1
 UP BND1      x29       1
 UP BND1      x30       1
 UP BND1      x31       1
 UP BND1      x32       1
 UP BND1      x33       1
 UP BND1      x34       1
 UP BND1      x35       1
 UP BND1      x36       1
 UP BND1      x37       1
 UP BND1      x38       1
 UP BND1      x39       1
 UP BND1      x40       1
 UP BND1      x41       1
 UP BND1      x42       1
 UP BND1      x43       1
 UP BND1      x44       1
 UP BND1      x45       1
 UP BND1      x46       1
 UP BND1      x47       1
 UP BND1      x48       1
 UP BND1      x49       1
 UP BND1      x50       1
 UP BND1      x51       1
 UP BND1      x52       1
 UP BND1      x53       1
ENDATA
